clingo version 5.4.0
Reading from ...s/logs/14_14x14_clingo/knights_tour.lp ...
Solving...
Answer: 1
occ(1,12,11) occ(1,5,12) occ(1,12,4) occ(1,6,4) occ(1,13,4) occ(1,3,9) occ(1,4,2) occ(1,9,6) occ(1,6,5) occ(2,10,12) occ(3,7,2) coverage(6)
Optimization: -6
Answer: 2
occ(1,12,11) occ(1,5,12) occ(1,12,4) occ(1,6,4) occ(1,13,4) occ(1,3,9) occ(1,4,2) occ(1,9,6) occ(1,6,5) occ(2,10,12) occ(3,7,2) coverage(7) occ(4,11,14) occ(6,13,13)
Optimization: -7
Answer: 3
occ(1,12,11) occ(1,5,12) occ(1,12,4) occ(1,6,4) occ(1,13,4) occ(1,3,9) occ(1,4,2) occ(1,9,6) occ(1,6,5) occ(2,10,12) occ(3,7,2) coverage(132) occ(49,1,3) occ(54,1,11) occ(55,1,2) occ(88,1,10) occ(95,1,4) occ(99,1,8) occ(114,1,5) occ(118,1,9) occ(122,1,13) occ(123,1,12) occ(51,2,1) occ(52,2,9) occ(56,2,13) occ(57,2,4) occ(90,2,8) occ(93,2,2) occ(97,2,6) occ(103,2,5) occ(112,2,3) occ(116,2,7) occ(120,2,11) occ(125,2,14) occ(11,3,2) occ(17,3,5) occ(47,3,4) occ(53,3,3) occ(86,3,11) occ(101,3,7) occ(107,3,8) occ(110,3,1) occ(111,3,10) occ(121,3,13) occ(124,3,14) occ(127,3,12) occ(15,4,3) occ(50,4,8) occ(58,4,14) occ(59,4,5) occ(84,4,13) occ(91,4,1) occ(92,4,7) occ(105,4,6) occ(113,4,12) occ(119,4,11) occ(129,4,10) occ(9,5,3) occ(13,5,1) occ(19,5,4) occ(45,5,5) occ(48,5,6) occ(61,5,7) occ(108,5,2) occ(109,5,9) occ(115,5,14) occ(126,5,13) occ(41,6,8) occ(60,6,13) occ(63,6,9) occ(82,6,14) occ(89,6,2) occ(94,6,6) occ(117,6,12) occ(131,6,11) occ(6,7,9) occ(7,7,4) occ(10,7,13) occ(20,7,12) occ(21,7,3) occ(43,7,6) occ(46,7,5) occ(106,7,1) occ(128,7,14) occ(8,8,11) occ(18,8,10) occ(25,8,4) occ(39,8,9) occ(44,8,7) occ(62,8,14) occ(65,8,8) occ(80,8,13) occ(87,8,1) occ(96,8,5) occ(104,8,3) occ(133,8,12) occ(149,8,2) occ(4,9,10) occ(5,9,3) occ(12,9,14) occ(16,9,12) occ(22,9,11) occ(23,9,2) occ(37,9,7) occ(42,9,9) occ(102,9,1) occ(130,9,13) occ(147,9,4) occ(27,10,3) occ(35,10,5) occ(40,10,7) occ(64,10,13) occ(67,10,9) occ(78,10,14) occ(85,10,2) occ(98,10,4) occ(135,10,11) occ(151,10,1) occ(14,11,13) occ(24,11,12) occ(29,11,1) occ(33,11,3) occ(100,11,2) occ(137,11,9) occ(141,11,7) occ(145,11,5) occ(26,12,14) occ(38,12,6) occ(66,12,12) occ(69,12,8) occ(70,12,10) occ(76,12,13) occ(79,12,3) occ(83,12,1) occ(153,12,2) occ(30,13,11) occ(31,13,2) occ(34,13,7) occ(72,13,12) occ(73,13,5) occ(77,13,1) occ(139,13,8) occ(143,13,6) occ(28,14,13) occ(32,14,9) occ(36,14,5) occ(68,14,11) occ(71,14,7) occ(74,14,14) occ(75,14,3) occ(81,14,2)
Optimization: -132
Answer: 4
occ(1,12,11) occ(1,5,12) occ(1,12,4) occ(1,6,4) occ(1,13,4) occ(1,3,9) occ(1,4,2) occ(1,9,6) occ(1,6,5) occ(2,10,12) occ(3,7,2) coverage(134) occ(49,1,3) occ(54,1,11) occ(55,1,2) occ(88,1,10) occ(95,1,4) occ(99,1,8) occ(114,1,5) occ(118,1,9) occ(122,1,13) occ(123,1,12) occ(51,2,1) occ(52,2,9) occ(56,2,13) occ(57,2,4) occ(90,2,8) occ(93,2,2) occ(97,2,6) occ(103,2,5) occ(112,2,3) occ(116,2,7) occ(120,2,11) occ(125,2,14) occ(11,3,2) occ(17,3,5) occ(47,3,4) occ(53,3,3) occ(86,3,11) occ(101,3,7) occ(107,3,8) occ(110,3,1) occ(111,3,10) occ(121,3,13) occ(124,3,14) occ(127,3,12) occ(15,4,3) occ(50,4,8) occ(58,4,14) occ(59,4,5) occ(84,4,13) occ(91,4,1) occ(92,4,7) occ(105,4,6) occ(113,4,12) occ(119,4,11) occ(129,4,10) occ(9,5,3) occ(13,5,1) occ(19,5,4) occ(45,5,5) occ(48,5,6) occ(61,5,7) occ(108,5,2) occ(109,5,9) occ(115,5,14) occ(126,5,13) occ(41,6,8) occ(60,6,13) occ(63,6,9) occ(82,6,14) occ(89,6,2) occ(94,6,6) occ(117,6,12) occ(131,6,11) occ(6,7,9) occ(7,7,4) occ(10,7,13) occ(20,7,12) occ(21,7,3) occ(43,7,6) occ(46,7,5) occ(106,7,1) occ(128,7,14) occ(8,8,11) occ(18,8,10) occ(25,8,4) occ(39,8,9) occ(44,8,7) occ(62,8,14) occ(65,8,8) occ(80,8,13) occ(87,8,1) occ(96,8,5) occ(104,8,3) occ(133,8,12) occ(149,8,2) occ(4,9,10) occ(5,9,3) occ(12,9,14) occ(16,9,12) occ(22,9,11) occ(23,9,2) occ(37,9,7) occ(42,9,9) occ(102,9,1) occ(130,9,13) occ(147,9,4) occ(27,10,3) occ(35,10,5) occ(40,10,7) occ(64,10,13) occ(67,10,9) occ(78,10,14) occ(85,10,2) occ(98,10,4) occ(135,10,11) occ(151,10,1) occ(14,11,13) occ(24,11,12) occ(29,11,1) occ(33,11,3) occ(100,11,2) occ(132,11,14) occ(137,11,9) occ(141,11,7) occ(145,11,5) occ(26,12,14) occ(38,12,6) occ(66,12,12) occ(69,12,8) occ(70,12,10) occ(76,12,13) occ(79,12,3) occ(83,12,1) occ(153,12,2) occ(30,13,11) occ(31,13,2) occ(34,13,7) occ(72,13,12) occ(73,13,5) occ(77,13,1) occ(139,13,8) occ(143,13,6) occ(28,14,13) occ(32,14,9) occ(36,14,5) occ(68,14,11) occ(71,14,7) occ(74,14,14) occ(75,14,3) occ(81,14,2)
Optimization: -134
Answer: 5
occ(1,12,11) occ(1,5,12) occ(1,12,4) occ(1,6,4) occ(1,13,4) occ(1,3,9) occ(1,4,2) occ(1,9,6) occ(1,6,5) occ(2,10,12) occ(3,7,2) coverage(136) occ(49,1,3) occ(54,1,11) occ(55,1,2) occ(88,1,10) occ(95,1,4) occ(99,1,8) occ(114,1,5) occ(118,1,9) occ(122,1,13) occ(123,1,12) occ(51,2,1) occ(52,2,9) occ(56,2,13) occ(57,2,4) occ(90,2,8) occ(93,2,2) occ(97,2,6) occ(103,2,5) occ(112,2,3) occ(116,2,7) occ(120,2,11) occ(125,2,14) occ(11,3,2) occ(17,3,5) occ(47,3,4) occ(53,3,3) occ(86,3,11) occ(101,3,7) occ(107,3,8) occ(110,3,1) occ(111,3,10) occ(121,3,13) occ(124,3,14) occ(127,3,12) occ(15,4,3) occ(50,4,8) occ(58,4,14) occ(59,4,5) occ(84,4,13) occ(91,4,1) occ(92,4,7) occ(105,4,6) occ(113,4,12) occ(119,4,11) occ(129,4,10) occ(9,5,3) occ(13,5,1) occ(19,5,4) occ(45,5,5) occ(48,5,6) occ(61,5,7) occ(108,5,2) occ(109,5,9) occ(115,5,14) occ(126,5,13) occ(41,6,8) occ(60,6,13) occ(63,6,9) occ(82,6,14) occ(89,6,2) occ(94,6,6) occ(117,6,12) occ(131,6,11) occ(6,7,9) occ(7,7,4) occ(10,7,13) occ(20,7,12) occ(21,7,3) occ(43,7,6) occ(46,7,5) occ(106,7,1) occ(128,7,14) occ(8,8,11) occ(18,8,10) occ(25,8,4) occ(39,8,9) occ(44,8,7) occ(62,8,14) occ(65,8,8) occ(80,8,13) occ(87,8,1) occ(96,8,5) occ(104,8,3) occ(133,8,12) occ(149,8,2) occ(4,9,10) occ(5,9,3) occ(12,9,14) occ(16,9,12) occ(22,9,11) occ(23,9,2) occ(37,9,7) occ(42,9,9) occ(102,9,1) occ(130,9,13) occ(147,9,4) occ(27,10,3) occ(35,10,5) occ(40,10,7) occ(64,10,13) occ(67,10,9) occ(78,10,14) occ(85,10,2) occ(98,10,4) occ(135,10,11) occ(151,10,1) occ(14,11,13) occ(24,11,12) occ(29,11,1) occ(33,11,3) occ(100,11,2) occ(132,11,14) occ(137,11,9) occ(141,11,7) occ(145,11,5) occ(26,12,14) occ(38,12,6) occ(66,12,12) occ(69,12,8) occ(70,12,10) occ(76,12,13) occ(79,12,3) occ(83,12,1) occ(153,12,2) occ(30,13,11) occ(31,13,2) occ(34,13,7) occ(72,13,12) occ(73,13,5) occ(77,13,1) occ(134,13,13) occ(139,13,8) occ(143,13,6) occ(28,14,13) occ(32,14,9) occ(36,14,5) occ(68,14,11) occ(71,14,7) occ(74,14,14) occ(75,14,3) occ(81,14,2)
Optimization: -136
Answer: 6
occ(1,12,11) occ(1,5,12) occ(1,12,4) occ(1,6,4) occ(1,13,4) occ(1,3,9) occ(1,4,2) occ(1,9,6) occ(1,6,5) occ(2,10,12) occ(3,7,2) coverage(160) occ(49,1,3) occ(54,1,11) occ(55,1,2) occ(88,1,10) occ(95,1,4) occ(99,1,8) occ(114,1,5) occ(118,1,9) occ(122,1,13) occ(123,1,12) occ(51,2,1) occ(52,2,9) occ(56,2,13) occ(57,2,4) occ(90,2,8) occ(93,2,2) occ(97,2,6) occ(103,2,5) occ(112,2,3) occ(116,2,7) occ(120,2,11) occ(125,2,14) occ(11,3,2) occ(17,3,5) occ(47,3,4) occ(53,3,3) occ(59,3,6) occ(86,3,11) occ(101,3,7) occ(107,3,8) occ(110,3,1) occ(111,3,10) occ(121,3,13) occ(124,3,14) occ(127,3,12) occ(15,4,3) occ(50,4,8) occ(58,4,14) occ(84,4,13) occ(91,4,1) occ(92,4,7) occ(105,4,6) occ(113,4,12) occ(119,4,11) occ(129,4,10) occ(9,5,3) occ(13,5,1) occ(19,5,4) occ(45,5,5) occ(48,5,6) occ(61,5,7) occ(108,5,2) occ(109,5,9) occ(115,5,14) occ(126,5,13) occ(136,5,8) occ(41,6,8) occ(60,6,13) occ(63,6,9) occ(82,6,14) occ(89,6,2) occ(94,6,6) occ(117,6,12) occ(131,6,11) occ(134,6,10) occ(140,6,7) occ(6,7,11) occ(7,7,4) occ(21,7,3) occ(43,7,6) occ(46,7,5) occ(106,7,1) occ(128,7,14) occ(138,7,9) occ(144,7,8) occ(148,7,12) occ(25,8,4) occ(39,8,9) occ(44,8,7) occ(62,8,14) occ(65,8,8) occ(80,8,13) occ(87,8,1) occ(96,8,5) occ(104,8,3) occ(132,8,11) occ(133,8,12) occ(142,8,6) occ(146,8,10) occ(149,8,2) occ(4,9,10) occ(5,9,3) occ(8,9,12) occ(23,9,2) occ(37,9,7) occ(42,9,9) occ(102,9,1) occ(130,9,13) occ(147,9,4) occ(150,9,11) occ(22,10,10) occ(27,10,3) occ(35,10,5) occ(40,10,7) occ(64,10,13) occ(67,10,9) occ(78,10,14) occ(85,10,2) occ(98,10,4) occ(135,10,11) occ(151,10,1) occ(158,10,6) occ(10,11,13) occ(24,11,12) occ(29,11,1) occ(33,11,3) occ(100,11,2) occ(137,11,9) occ(141,11,7) occ(145,11,5) occ(152,11,10) occ(156,11,8) occ(159,11,4) occ(20,12,9) occ(26,12,14) occ(38,12,6) occ(66,12,12) occ(69,12,8) occ(70,12,10) occ(76,12,13) occ(79,12,3) occ(83,12,1) occ(153,12,2) occ(12,13,14) occ(16,13,10) occ(30,13,11) occ(31,13,2) occ(34,13,7) occ(72,13,12) occ(73,13,5) occ(77,13,1) occ(139,13,8) occ(143,13,6) occ(154,13,9) occ(157,13,3) occ(14,14,12) occ(18,14,8) occ(28,14,13) occ(32,14,9) occ(36,14,5) occ(68,14,11) occ(71,14,7) occ(74,14,14) occ(75,14,3) occ(81,14,2) occ(155,14,1)
Optimization: -160
Answer: 7
occ(1,12,11) occ(1,5,12) occ(1,12,4) occ(1,6,4) occ(1,13,4) occ(1,3,9) occ(1,4,2) occ(1,9,6) occ(1,6,5) occ(2,10,12) occ(3,7,2) coverage(166) occ(9,1,3) occ(25,1,9) occ(29,1,13) occ(79,1,6) occ(83,1,4) occ(93,1,5) occ(131,1,12) occ(132,1,10) occ(137,1,11) occ(141,1,7) occ(11,2,1) occ(23,2,7) occ(27,2,11) occ(46,2,10) occ(77,2,4) occ(85,2,2) occ(91,2,3) occ(129,2,14) occ(130,2,12) occ(134,2,8) occ(135,2,13) occ(139,2,9) occ(143,2,5) occ(7,3,2) occ(13,3,3) occ(31,3,14) occ(44,3,8) occ(50,3,7) occ(75,3,6) occ(81,3,5) occ(89,3,1) occ(95,3,4) occ(127,3,12) occ(133,3,11) occ(136,3,10) occ(10,4,12) occ(15,4,1) occ(21,4,6) occ(48,4,9) occ(52,4,5) occ(73,4,8) occ(87,4,3) occ(107,4,7) occ(111,4,11) occ(125,4,14) occ(128,4,13) occ(145,4,4) occ(5,5,1) occ(8,5,14) occ(19,5,4) occ(33,5,13) occ(42,5,7) occ(67,5,10) occ(71,5,6) occ(84,5,8) occ(97,5,3) occ(105,5,5) occ(109,5,9) occ(138,5,11) occ(147,5,2) occ(6,6,12) occ(12,6,11) occ(17,6,2) occ(54,6,6) occ(69,6,8) occ(99,6,1) occ(103,6,3) occ(113,6,10) occ(123,6,13) occ(126,6,14) occ(140,6,9) occ(14,7,13) occ(35,7,14) occ(40,7,6) occ(56,7,4) occ(60,7,8) occ(65,7,11) occ(82,7,9) occ(86,7,7) occ(115,7,12) occ(149,7,1) occ(4,8,11) occ(38,8,4) occ(58,8,6) occ(62,8,10) occ(63,8,9) occ(78,8,12) occ(88,8,5) occ(92,8,3) occ(96,8,1) occ(101,8,2) occ(112,8,7) occ(121,8,14) occ(124,8,13) occ(142,8,8) occ(16,9,12) occ(37,9,13) occ(47,9,8) occ(61,9,7) occ(76,9,14) occ(80,9,10) occ(98,9,3) occ(110,9,5) occ(114,9,9) occ(117,9,11) occ(151,9,2) occ(36,10,3) occ(45,10,10) occ(49,10,6) occ(59,10,9) occ(64,10,11) occ(90,10,4) occ(94,10,2) occ(100,10,1) occ(119,10,13) occ(122,10,14) occ(144,10,7) occ(158,10,8) occ(18,11,11) occ(26,11,7) occ(34,11,1) occ(39,11,14) occ(43,11,12) occ(74,11,13) occ(108,11,4) occ(116,11,10) occ(148,11,8) occ(153,11,3) occ(156,11,6) occ(159,11,2) occ(165,11,5) occ(24,12,9) occ(51,12,5) occ(57,12,10) occ(66,12,12) occ(102,12,2) occ(120,12,13) occ(146,12,6) occ(154,12,8) occ(155,12,1) occ(160,12,7) occ(163,12,3) occ(20,13,12) occ(28,13,6) occ(32,13,2) occ(41,13,13) occ(53,13,7) occ(68,13,10) occ(72,13,14) occ(106,13,5) occ(118,13,11) occ(150,13,9) occ(157,13,3) occ(161,13,1) occ(164,13,8) occ(22,14,10) occ(30,14,4) occ(55,14,9) occ(70,14,12) occ(104,14,3) occ(152,14,7) occ(162,14,6)
Optimization: -166
Answer: 8
occ(1,12,11) occ(1,5,12) occ(1,12,4) occ(1,6,4) occ(1,13,4) occ(1,3,9) occ(1,4,2) occ(1,9,6) occ(1,6,5) occ(2,10,12) occ(3,7,2) coverage(167) occ(14,1,13) occ(18,1,9) occ(38,1,11) occ(44,1,8) occ(51,1,12) occ(88,1,2) occ(98,1,7) occ(102,1,3) occ(108,1,4) occ(114,1,5) occ(10,2,12) occ(16,2,11) occ(36,2,9) occ(42,2,10) occ(53,2,14) occ(90,2,4) occ(100,2,5) occ(104,2,1) occ(110,2,2) occ(116,2,7) occ(12,3,14) occ(20,3,10) occ(40,3,12) occ(46,3,7) occ(49,3,13) occ(57,3,11) occ(86,3,1) occ(96,3,6) occ(106,3,3) occ(112,3,4) occ(117,3,5) occ(120,3,8) occ(123,3,2) occ(8,4,11) occ(19,4,1) occ(24,4,9) occ(34,4,8) occ(45,4,12) occ(48,4,5) occ(55,4,13) occ(92,4,3) occ(115,4,7) occ(118,4,6) occ(121,4,4) occ(122,4,10) occ(17,5,3) occ(22,5,11) occ(37,5,13) occ(47,5,14) occ(50,5,7) occ(59,5,10) occ(77,5,9) occ(84,5,2) occ(94,5,5) occ(111,5,8) occ(119,5,6) occ(125,5,1) occ(6,6,12) occ(21,6,2) occ(26,6,8) occ(32,6,7) occ(33,6,10) occ(43,6,11) occ(63,6,13) occ(80,6,1) occ(113,6,6) occ(124,6,9) occ(127,6,3) occ(15,7,4) occ(29,7,7) occ(30,7,5) occ(35,7,12) occ(39,7,14) occ(52,7,6) occ(61,7,11) occ(75,7,10) occ(79,7,8) occ(82,7,3) occ(109,7,9) occ(146,7,13) occ(4,8,13) occ(7,8,3) occ(13,8,6) occ(23,8,1) occ(27,8,5) occ(28,8,7) occ(31,8,9) occ(41,8,12) occ(54,8,8) occ(65,8,14) occ(78,8,2) occ(126,8,10) occ(129,8,4) occ(144,8,11) occ(5,9,1) occ(11,9,4) occ(25,9,3) occ(67,9,12) occ(73,9,11) occ(81,9,7) occ(103,9,10) occ(107,9,8) occ(130,9,9) occ(133,9,5) occ(142,9,13) occ(148,9,14) occ(163,9,2) occ(9,10,2) occ(56,10,7) occ(71,10,13) occ(76,10,1) occ(87,10,5) occ(91,10,9) occ(101,10,8) occ(128,10,11) occ(131,10,3) occ(137,10,6) occ(161,10,4) occ(166,10,14) occ(170,10,10) occ(58,11,5) occ(68,11,2) occ(69,11,11) occ(74,11,3) occ(83,11,8) occ(89,11,7) occ(105,11,9) occ(132,11,10) occ(135,11,4) occ(140,11,14) occ(150,11,13) occ(159,11,6) occ(165,11,1) occ(168,11,12) occ(60,12,3) occ(72,12,1) occ(85,12,6) occ(93,12,10) occ(99,12,9) occ(139,12,7) occ(143,12,5) occ(153,12,8) occ(154,12,12) occ(158,12,14) occ(164,12,13) occ(62,13,5) occ(66,13,1) occ(70,13,3) occ(95,13,8) occ(134,13,9) occ(138,13,13) occ(147,13,6) occ(151,13,10) occ(152,13,14) occ(157,13,7) occ(160,13,12) occ(64,14,3) occ(97,14,10) occ(136,14,11) occ(141,14,6) occ(145,14,4) occ(149,14,8) occ(155,14,9) occ(156,14,13) occ(162,14,14)
Optimization: -167
Answer: 9
occ(1,12,11) occ(1,5,12) occ(1,12,4) occ(1,6,4) occ(1,13,4) occ(1,3,9) occ(1,4,2) occ(1,9,6) occ(1,6,5) occ(2,10,12) occ(3,7,2) coverage(168) occ(44,1,10) occ(48,1,14) occ(67,1,4) occ(77,1,11) occ(130,1,13) occ(134,1,9) occ(138,1,5) occ(142,1,3) occ(152,1,2) occ(166,1,7) occ(42,2,8) occ(46,2,12) occ(65,2,2) occ(69,2,6) occ(73,2,10) occ(79,2,13) occ(132,2,11) occ(136,2,7) occ(150,2,4) occ(156,2,3) occ(164,2,5) occ(34,3,3) occ(38,3,7) occ(50,3,13) occ(71,3,8) occ(75,3,12) occ(81,3,11) occ(128,3,14) occ(140,3,4) occ(143,3,6) occ(144,3,2) occ(154,3,1) occ(155,3,10) occ(158,3,5) occ(22,4,6) occ(36,4,5) occ(40,4,9) occ(54,4,12) occ(63,4,1) occ(78,4,8) occ(83,4,13) occ(124,4,11) occ(129,4,10) occ(148,4,3) occ(159,4,7) occ(162,4,4) occ(20,5,8) occ(24,5,4) occ(32,5,2) occ(52,5,14) occ(61,5,3) occ(80,5,10) occ(126,5,13) occ(141,5,7) occ(145,5,5) occ(146,5,1) occ(153,5,11) occ(157,5,9) occ(160,5,6) occ(18,6,10) occ(26,6,2) occ(43,6,3) occ(56,6,13) occ(76,6,7) occ(85,6,14) occ(122,6,12) occ(127,6,11) occ(131,6,9) occ(149,6,8) occ(161,6,6) occ(14,7,9) occ(30,7,3) occ(45,7,1) occ(49,7,5) occ(59,7,4) occ(82,7,11) occ(87,7,12) occ(120,7,14) occ(125,7,13) occ(133,7,7) occ(139,7,8) occ(147,7,6) occ(151,7,10) occ(6,8,12) occ(16,8,11) occ(28,8,1) occ(41,8,4) occ(47,8,3) occ(53,8,2) occ(58,8,14) occ(74,8,6) occ(84,8,13) occ(89,8,10) occ(135,8,9) occ(163,8,7) occ(4,9,14) occ(5,9,1) occ(8,9,10) occ(12,9,8) occ(39,9,2) occ(51,9,4) occ(57,9,3) occ(66,9,9) occ(118,9,13) occ(123,9,12) occ(137,9,7) occ(7,10,3) occ(55,10,1) occ(60,10,13) occ(64,10,11) occ(68,10,7) occ(72,10,5) occ(86,10,14) occ(90,10,10) occ(91,10,9) occ(94,10,6) occ(98,10,2) occ(101,10,4) occ(165,10,8) occ(9,11,5) occ(10,11,9) occ(17,11,11) occ(25,11,7) occ(33,11,3) occ(37,11,1) occ(88,11,12) occ(92,11,8) occ(96,11,4) occ(99,11,6) occ(103,11,2) occ(116,11,14) occ(121,11,13) occ(167,11,10) occ(11,12,7) occ(31,12,5) occ(62,12,12) occ(70,12,6) occ(93,12,10) occ(97,12,8) occ(100,12,3) occ(111,12,9) occ(115,12,13) occ(15,13,10) occ(19,13,12) occ(23,13,8) occ(27,13,6) occ(35,13,2) occ(102,13,1) occ(105,13,3) occ(106,13,5) occ(109,13,7) occ(110,13,9) occ(113,13,11) occ(114,13,13) occ(119,13,14) occ(13,14,8) occ(21,14,10) occ(29,14,4) occ(95,14,9) occ(104,14,3) occ(107,14,5) occ(108,14,7) occ(112,14,11) occ(117,14,12)
Optimization: -168
Answer: 10
occ(1,12,11) occ(1,5,12) occ(1,12,4) occ(1,6,4) occ(1,13,4) occ(1,3,9) occ(1,4,2) occ(1,9,6) occ(1,6,5) occ(2,10,12) occ(3,7,2) coverage(169) occ(36,1,6) occ(41,1,3) occ(52,1,4) occ(67,1,8) occ(71,1,12) occ(114,1,13) occ(137,1,7) occ(144,1,14) occ(148,1,10) occ(154,1,5) occ(38,2,4) occ(39,2,1) occ(43,2,5) occ(47,2,3) occ(50,2,2) occ(65,2,6) occ(69,2,10) occ(73,2,14) occ(112,2,11) occ(135,2,9) occ(146,2,12) occ(150,2,8) occ(156,2,7) occ(34,3,7) occ(37,3,3) occ(40,3,2) occ(48,3,4) occ(49,3,1) occ(54,3,5) occ(116,3,14) occ(133,3,11) occ(139,3,8) occ(142,3,13) occ(143,3,10) occ(152,3,6) occ(27,4,9) occ(31,4,5) occ(35,4,1) occ(44,4,3) occ(45,4,4) occ(63,4,7) occ(75,4,13) occ(110,4,12) occ(117,4,10) occ(140,4,11) occ(158,4,6) occ(29,5,7) occ(32,5,6) occ(33,5,3) occ(42,5,1) occ(46,5,5) occ(51,5,2) occ(56,5,4) occ(108,5,14) occ(118,5,13) occ(131,5,10) occ(141,5,9) occ(145,5,11) occ(160,5,8) occ(25,6,10) occ(28,6,7) occ(55,6,1) occ(58,6,2) occ(61,6,6) occ(77,6,14) occ(95,6,13) occ(115,6,9) occ(119,6,11) occ(138,6,12) occ(149,6,8) occ(30,7,5) occ(53,7,3) occ(59,7,4) occ(66,7,1) occ(99,7,14) occ(106,7,13) occ(113,7,11) occ(120,7,12) occ(129,7,9) occ(147,7,10) occ(151,7,6) occ(155,7,8) occ(162,7,7) occ(18,8,6) occ(23,8,9) occ(26,8,8) occ(57,8,2) occ(60,8,1) occ(64,8,3) occ(79,8,13) occ(93,8,14) occ(97,8,12) occ(121,8,10) occ(127,8,7) occ(136,8,11) occ(164,8,5) occ(5,9,3) occ(16,9,4) occ(68,9,2) occ(82,9,1) occ(83,9,12) occ(101,9,13) occ(104,9,14) occ(111,9,10) occ(122,9,11) occ(123,9,8) occ(153,9,7) occ(157,9,9) occ(12,10,7) occ(20,10,5) occ(21,10,8) occ(24,10,9) occ(62,10,2) occ(72,10,1) occ(81,10,14) occ(84,10,3) occ(91,10,13) occ(107,10,11) occ(125,10,6) occ(134,10,10) occ(166,10,4) occ(7,11,4) occ(14,11,5) occ(19,11,6) occ(22,11,7) occ(70,11,3) occ(80,11,2) occ(85,11,11) occ(86,11,1) occ(102,11,13) occ(103,11,14) occ(109,11,9) occ(124,11,12) occ(159,11,10) occ(4,12,13) occ(9,12,6) occ(10,12,8) occ(15,12,5) occ(74,12,2) occ(89,12,14) occ(105,12,12) occ(126,12,10) occ(132,12,9) occ(163,12,7) occ(168,12,3) occ(6,13,11) occ(13,13,3) occ(17,13,7) occ(78,13,1) occ(87,13,12) occ(88,13,2) occ(92,13,6) occ(96,13,10) occ(100,13,14) occ(128,13,8) occ(161,13,9) occ(165,13,5) occ(8,14,9) occ(11,14,5) occ(76,14,3) occ(90,14,4) occ(94,14,8) occ(98,14,12) occ(130,14,10) occ(167,14,7)
Optimization: -169
Answer: 11
occ(1,12,11) occ(1,5,12) occ(1,12,4) occ(1,6,4) occ(1,13,4) occ(1,3,9) occ(1,4,2) occ(1,9,6) occ(1,6,5) occ(2,10,12) occ(3,7,2) coverage(170) occ(14,1,13) occ(18,1,9) occ(22,1,5) occ(28,1,2) occ(34,1,3) occ(65,1,11) occ(108,1,12) occ(163,1,10) occ(9,2,4) occ(16,2,11) occ(20,2,7) occ(24,2,3) occ(32,2,1) occ(36,2,5) occ(45,2,2) occ(63,2,9) occ(69,2,10) occ(110,2,14) occ(161,2,12) occ(165,2,8) occ(169,2,6) occ(7,3,2) occ(11,3,6) occ(12,3,14) occ(26,3,1) occ(30,3,3) occ(38,3,7) occ(47,3,4) occ(51,3,8) occ(67,3,12) occ(106,3,11) occ(10,4,12) occ(13,4,8) occ(25,4,4) occ(40,4,5) occ(43,4,1) occ(49,4,6) occ(61,4,10) occ(71,4,9) occ(112,4,13) occ(159,4,11) occ(167,4,7) occ(5,5,1) occ(8,5,14) occ(23,5,6) occ(27,5,2) occ(31,5,4) occ(42,5,3) occ(53,5,9) occ(73,5,7) occ(86,5,5) occ(104,5,10) occ(136,5,8) occ(157,5,13) occ(158,5,11) occ(15,6,7) occ(33,6,6) occ(41,6,2) occ(44,6,1) occ(55,6,11) occ(59,6,9) occ(84,6,3) occ(102,6,8) occ(114,6,14) occ(130,6,10) occ(156,6,13) occ(6,7,13) occ(21,7,5) occ(29,7,3) occ(72,7,8) occ(75,7,6) occ(82,7,1) occ(88,7,4) occ(134,7,7) occ(138,7,9) occ(151,7,10) occ(155,7,14) occ(160,7,12) occ(17,8,6) occ(35,8,5) occ(39,8,1) occ(46,8,2) occ(56,8,3) occ(57,8,10) occ(77,8,4) occ(100,8,7) occ(116,8,13) occ(128,8,11) occ(132,8,9) occ(149,8,8) occ(153,8,12) occ(154,8,14) occ(4,9,14) occ(19,9,4) occ(37,9,3) occ(58,9,1) occ(70,9,9) occ(74,9,7) occ(80,9,2) occ(87,9,8) occ(90,9,5) occ(93,9,11) occ(124,9,12) occ(140,9,10) occ(162,9,13) occ(48,10,1) occ(54,10,2) occ(78,10,4) occ(79,10,5) occ(91,10,9) occ(92,10,3) occ(98,10,6) occ(107,10,11) occ(118,10,14) occ(126,10,10) occ(142,10,8) occ(147,10,7) occ(152,10,13) occ(50,11,3) occ(60,11,2) occ(68,11,8) occ(76,11,6) occ(85,11,9) occ(89,11,7) occ(95,11,10) occ(96,11,4) occ(99,11,14) occ(109,11,13) occ(121,11,5) occ(122,11,11) occ(133,11,1) occ(164,11,12) occ(52,12,1) occ(81,12,6) occ(94,12,2) occ(97,12,12) occ(105,12,10) occ(120,12,13) occ(123,12,7) occ(127,12,5) occ(135,12,3) occ(144,12,9) occ(145,12,8) occ(150,12,14) occ(62,13,3) occ(66,13,7) occ(83,13,8) occ(101,13,13) occ(111,13,14) occ(115,13,10) occ(119,13,6) occ(131,13,2) occ(137,13,1) occ(141,13,5) occ(148,13,12) occ(166,13,11) occ(64,14,5) occ(103,14,11) occ(113,14,12) occ(117,14,8) occ(125,14,6) occ(129,14,4) occ(139,14,3) occ(143,14,7) occ(146,14,10) occ(168,14,9)
Optimization: -170
Answer: 12
occ(1,12,11) occ(1,5,12) occ(1,12,4) occ(1,6,4) occ(1,13,4) occ(1,3,9) occ(1,4,2) occ(1,9,6) occ(1,6,5) occ(2,10,12) occ(3,7,2) coverage(171) occ(72,1,2) occ(73,1,5) occ(77,1,9) occ(91,1,12) occ(99,1,10) occ(103,1,6) occ(114,1,11) occ(115,1,4) occ(128,1,8) occ(134,1,3) occ(150,1,7) occ(170,1,13) occ(43,2,11) occ(71,2,3) occ(75,2,7) occ(89,2,10) occ(93,2,14) occ(101,2,8) occ(105,2,4) occ(112,2,13) occ(116,2,9) occ(117,2,2) occ(130,2,6) occ(148,2,5) occ(162,2,12) occ(45,3,13) occ(70,3,3) occ(74,3,1) occ(79,3,10) occ(87,3,8) occ(97,3,11) occ(113,3,5) occ(126,3,7) occ(132,3,4) occ(136,3,2) occ(152,3,6) occ(164,3,14) occ(168,3,12) occ(21,4,12) occ(41,4,10) occ(69,4,4) occ(95,4,13) occ(107,4,5) occ(110,4,14) occ(111,4,7) occ(118,4,8) occ(119,4,1) occ(124,4,9) occ(140,4,3) occ(146,4,6) occ(160,4,11) occ(23,5,10) occ(39,5,8) occ(47,5,14) occ(68,5,4) occ(76,5,2) occ(81,5,11) occ(85,5,9) occ(120,5,6) occ(121,5,3) occ(138,5,1) occ(142,5,5) occ(154,5,7) occ(166,5,13) occ(6,6,14) occ(19,6,11) occ(35,6,9) occ(49,6,12) occ(66,6,2) occ(67,6,3) occ(108,6,13) occ(109,6,6) occ(122,6,8) occ(123,6,1) occ(144,6,7) occ(158,6,10) occ(8,7,12) occ(17,7,13) occ(25,7,9) occ(37,7,7) occ(56,7,6) occ(64,7,4) occ(65,7,5) occ(78,7,1) occ(83,7,10) occ(94,7,3) occ(106,7,11) occ(156,7,8) occ(4,8,13) occ(13,8,10) occ(26,8,12) occ(33,8,8) occ(51,8,11) occ(58,8,4) occ(62,8,6) occ(63,8,7) occ(80,8,3) occ(92,8,1) occ(96,8,5) occ(104,8,9) occ(125,8,2) occ(5,9,3) occ(10,9,11) occ(11,9,8) occ(15,9,12) occ(24,9,14) occ(27,9,10) occ(53,9,13) occ(54,9,5) occ(61,9,9) occ(82,9,1) occ(98,9,7) occ(131,9,4) occ(9,10,6) occ(14,10,14) occ(28,10,13) occ(31,10,7) occ(50,10,8) occ(59,10,11) occ(60,10,5) occ(90,10,2) occ(102,10,10) occ(127,10,3) occ(153,10,4) occ(159,10,9) occ(7,11,4) occ(12,11,12) occ(22,11,13) occ(29,11,9) occ(44,11,10) occ(52,11,6) occ(55,11,14) occ(84,11,2) occ(100,11,8) occ(129,11,5) occ(133,11,3) occ(157,11,7) occ(16,12,13) occ(30,12,14) occ(40,12,7) occ(48,12,9) occ(57,12,12) occ(88,12,1) occ(145,12,8) occ(151,12,3) occ(155,12,5) occ(161,12,10) occ(169,12,6) occ(20,13,14) occ(32,13,12) occ(36,13,8) occ(42,13,9) occ(46,13,11) occ(86,13,3) occ(135,13,2) occ(139,13,6) occ(143,13,10) occ(149,13,5) occ(165,13,7) occ(18,14,12) occ(34,14,10) occ(38,14,6) occ(137,14,4) occ(141,14,8) occ(147,14,7) occ(163,14,9) occ(167,14,5)
Optimization: -171
Answer: 13
occ(1,12,11) occ(1,5,12) occ(1,12,4) occ(1,6,4) occ(1,13,4) occ(1,3,9) occ(1,4,2) occ(1,9,6) occ(1,6,5) occ(2,10,12) occ(3,7,2) coverage(172) occ(72,1,2) occ(73,1,5) occ(77,1,9) occ(91,1,12) occ(99,1,10) occ(103,1,6) occ(114,1,11) occ(115,1,4) occ(128,1,8) occ(134,1,3) occ(150,1,7) occ(170,1,13) occ(43,2,11) occ(71,2,3) occ(75,2,7) occ(89,2,10) occ(93,2,14) occ(101,2,8) occ(105,2,4) occ(112,2,13) occ(116,2,9) occ(117,2,2) occ(130,2,6) occ(148,2,5) occ(162,2,12) occ(45,3,13) occ(70,3,3) occ(74,3,1) occ(79,3,10) occ(87,3,8) occ(97,3,11) occ(113,3,5) occ(126,3,7) occ(132,3,4) occ(136,3,2) occ(152,3,6) occ(164,3,14) occ(168,3,12) occ(21,4,12) occ(41,4,10) occ(69,4,4) occ(95,4,13) occ(107,4,5) occ(110,4,14) occ(111,4,7) occ(118,4,8) occ(119,4,1) occ(124,4,9) occ(140,4,3) occ(146,4,6) occ(160,4,11) occ(23,5,10) occ(39,5,8) occ(47,5,14) occ(68,5,4) occ(76,5,2) occ(81,5,11) occ(85,5,9) occ(120,5,6) occ(121,5,3) occ(138,5,1) occ(142,5,5) occ(154,5,7) occ(166,5,13) occ(6,6,14) occ(19,6,11) occ(35,6,9) occ(49,6,12) occ(66,6,2) occ(67,6,3) occ(108,6,13) occ(109,6,6) occ(122,6,8) occ(123,6,1) occ(144,6,7) occ(158,6,10) occ(8,7,12) occ(17,7,13) occ(25,7,9) occ(37,7,7) occ(51,7,14) occ(56,7,6) occ(64,7,4) occ(65,7,5) occ(78,7,1) occ(83,7,10) occ(94,7,3) occ(102,7,11) occ(156,7,8) occ(4,8,13) occ(15,8,11) occ(26,8,12) occ(33,8,8) occ(58,8,4) occ(62,8,6) occ(63,8,7) occ(80,8,3) occ(92,8,1) occ(96,8,5) occ(100,8,9) occ(106,8,14) occ(125,8,2) occ(5,9,3) occ(10,9,11) occ(11,9,8) occ(24,9,14) occ(27,9,10) occ(53,9,13) occ(54,9,5) occ(61,9,9) occ(82,9,1) occ(98,9,7) occ(104,9,12) occ(131,9,4) occ(9,10,6) occ(13,10,10) occ(14,10,14) occ(28,10,13) occ(31,10,7) occ(50,10,8) occ(59,10,11) occ(60,10,5) occ(90,10,2) occ(127,10,3) occ(153,10,4) occ(159,10,9) occ(7,11,4) occ(12,11,12) occ(22,11,13) occ(29,11,9) occ(44,11,10) occ(52,11,6) occ(55,11,14) occ(84,11,2) occ(129,11,5) occ(133,11,3) occ(157,11,7) occ(171,11,8) occ(16,12,13) occ(30,12,14) occ(40,12,7) occ(48,12,9) occ(57,12,12) occ(88,12,1) occ(145,12,8) occ(151,12,3) occ(155,12,5) occ(161,12,10) occ(169,12,6) occ(20,13,14) occ(32,13,12) occ(36,13,8) occ(42,13,9) occ(46,13,11) occ(86,13,3) occ(135,13,2) occ(139,13,6) occ(143,13,10) occ(149,13,5) occ(165,13,7) occ(18,14,12) occ(34,14,10) occ(38,14,6) occ(137,14,4) occ(141,14,8) occ(147,14,7) occ(163,14,9) occ(167,14,5)
Optimization: -172
Answer: 14
occ(1,12,11) occ(1,5,12) occ(1,12,4) occ(1,6,4) occ(1,13,4) occ(1,3,9) occ(1,4,2) occ(1,9,6) occ(1,6,5) occ(2,10,12) occ(3,7,2) coverage(173) occ(33,1,11) occ(37,1,7) occ(48,1,4) occ(60,1,10) occ(67,1,12) occ(113,1,9) occ(117,1,13) occ(126,1,5) occ(132,1,6) occ(136,1,2) occ(154,1,3) occ(170,1,1) occ(35,2,9) occ(39,2,5) occ(46,2,2) occ(50,2,6) occ(58,2,8) occ(62,2,12) occ(69,2,14) occ(115,2,11) occ(128,2,7) occ(134,2,4) occ(152,2,1) occ(172,2,3) occ(31,3,10) occ(41,3,7) occ(45,3,11) occ(65,3,13) occ(71,3,12) occ(111,3,8) occ(119,3,14) occ(124,3,6) occ(130,3,5) occ(138,3,1) occ(150,3,3) occ(156,3,4) occ(168,3,2) occ(29,4,8) occ(43,4,9) occ(44,4,1) occ(49,4,12) occ(52,4,5) occ(56,4,7) occ(63,4,11) occ(64,4,13) occ(73,4,10) occ(122,4,4) occ(158,4,6) occ(164,4,3) occ(27,5,6) occ(47,5,10) occ(51,5,14) occ(61,5,9) occ(66,5,11) occ(75,5,8) occ(90,5,3) occ(109,5,7) occ(121,5,13) occ(140,5,2) occ(148,5,4) occ(162,5,5) occ(166,5,1) occ(8,6,13) occ(25,6,8) occ(42,6,2) occ(53,6,12) occ(54,6,6) occ(59,6,11) occ(88,6,1) occ(110,6,10) occ(120,6,3) occ(160,6,7) occ(10,7,11) occ(21,7,9) occ(57,7,13) occ(68,7,10) occ(77,7,7) occ(92,7,4) occ(107,7,6) occ(112,7,8) occ(118,7,5) occ(123,7,14) occ(142,7,1) occ(146,7,3) occ(159,7,12) occ(6,8,12) occ(7,8,1) occ(17,8,8) occ(23,8,7) occ(40,8,3) occ(55,8,11) occ(79,8,5) occ(86,8,2) occ(105,8,4) occ(108,8,9) occ(114,8,6) occ(157,8,14) occ(163,8,13) occ(4,9,14) occ(5,9,3) occ(12,9,12) occ(19,9,10) occ(34,9,1) occ(70,9,9) occ(81,9,7) occ(94,9,5) occ(116,9,4) occ(125,9,13) occ(139,9,8) occ(144,9,2) occ(161,9,11) occ(9,10,2) occ(15,10,7) occ(16,10,11) occ(32,10,3) occ(38,10,4) occ(84,10,1) occ(91,10,9) occ(103,10,5) occ(106,10,8) occ(137,10,10) occ(141,10,6) occ(155,10,13) occ(165,10,14) occ(13,11,5) occ(14,11,13) occ(18,11,9) occ(30,11,1) occ(36,11,2) occ(72,11,8) occ(83,11,6) occ(93,11,11) occ(96,11,4) occ(101,11,7) occ(104,11,10) occ(127,11,14) occ(151,11,12) occ(11,12,3) occ(74,12,6) occ(82,12,2) occ(89,12,10) occ(102,12,8) occ(129,12,12) occ(135,12,9) occ(143,12,7) occ(153,12,14) occ(167,12,13) occ(20,13,10) occ(24,13,6) occ(28,13,2) occ(78,13,3) occ(85,13,7) occ(95,13,12) occ(98,13,5) occ(99,13,8) occ(133,13,11) occ(145,13,9) occ(149,13,13) occ(171,13,14) occ(22,14,8) occ(26,14,4) occ(76,14,5) occ(80,14,1) occ(87,14,9) occ(97,14,10) occ(100,14,7) occ(131,14,13) occ(147,14,11) occ(169,14,12)
Optimization: -173
Answer: 15
occ(1,12,11) occ(1,5,12) occ(1,12,4) occ(1,6,4) occ(1,13,4) occ(1,3,9) occ(1,4,2) occ(1,9,6) occ(1,6,5) occ(2,10,12) occ(3,7,2) coverage(174) occ(33,1,11) occ(37,1,7) occ(48,1,4) occ(60,1,10) occ(67,1,12) occ(113,1,9) occ(117,1,13) occ(126,1,5) occ(132,1,6) occ(136,1,2) occ(154,1,3) occ(170,1,1) occ(35,2,9) occ(39,2,5) occ(46,2,2) occ(50,2,6) occ(58,2,8) occ(62,2,12) occ(69,2,14) occ(115,2,11) occ(128,2,7) occ(134,2,4) occ(152,2,1) occ(172,2,3) occ(31,3,10) occ(41,3,7) occ(45,3,11) occ(65,3,13) occ(71,3,12) occ(111,3,8) occ(119,3,14) occ(124,3,6) occ(130,3,5) occ(138,3,1) occ(150,3,3) occ(156,3,4) occ(168,3,2) occ(29,4,8) occ(43,4,9) occ(44,4,1) occ(49,4,12) occ(52,4,5) occ(56,4,7) occ(63,4,11) occ(64,4,13) occ(73,4,10) occ(122,4,4) occ(158,4,6) occ(164,4,3) occ(27,5,6) occ(47,5,10) occ(51,5,14) occ(61,5,9) occ(66,5,11) occ(75,5,8) occ(90,5,3) occ(109,5,7) occ(121,5,13) occ(140,5,2) occ(148,5,4) occ(162,5,5) occ(166,5,1) occ(8,6,13) occ(25,6,8) occ(42,6,2) occ(53,6,12) occ(54,6,6) occ(59,6,11) occ(88,6,1) occ(110,6,10) occ(120,6,3) occ(160,6,7) occ(10,7,11) occ(21,7,9) occ(57,7,13) occ(68,7,10) occ(77,7,7) occ(92,7,4) occ(107,7,6) occ(112,7,8) occ(118,7,5) occ(123,7,14) occ(142,7,1) occ(146,7,3) occ(159,7,12) occ(6,8,12) occ(17,8,8) occ(23,8,7) occ(40,8,3) occ(55,8,11) occ(79,8,5) occ(86,8,2) occ(105,8,4) occ(108,8,9) occ(114,8,6) occ(157,8,14) occ(163,8,13) occ(173,8,10) occ(4,9,14) occ(5,9,3) occ(9,9,1) occ(12,9,12) occ(19,9,10) occ(70,9,9) occ(81,9,7) occ(94,9,5) occ(116,9,4) occ(125,9,13) occ(139,9,8) occ(144,9,2) occ(161,9,11) occ(11,10,3) occ(15,10,7) occ(16,10,11) occ(38,10,2) occ(84,10,1) occ(85,10,4) occ(103,10,5) occ(106,10,8) occ(137,10,10) occ(141,10,6) occ(155,10,13) occ(165,10,14) occ(171,10,9) occ(7,11,2) occ(13,11,5) occ(14,11,13) occ(18,11,9) occ(30,11,1) occ(72,11,8) occ(83,11,6) occ(96,11,4) occ(101,11,7) occ(104,11,10) occ(127,11,14) occ(151,11,12) occ(169,11,11) occ(32,12,3) occ(36,12,1) occ(74,12,6) occ(82,12,2) occ(87,12,5) occ(93,12,10) occ(102,12,8) occ(129,12,12) occ(135,12,9) occ(143,12,7) occ(153,12,14) occ(167,12,13) occ(20,13,10) occ(24,13,6) occ(28,13,2) occ(78,13,3) occ(89,13,7) occ(95,13,12) occ(98,13,5) occ(99,13,8) occ(133,13,11) occ(145,13,9) occ(149,13,13) occ(22,14,8) occ(26,14,4) occ(34,14,2) occ(76,14,5) occ(80,14,1) occ(91,14,9) occ(97,14,10) occ(100,14,7) occ(131,14,13) occ(147,14,11)
Optimization: -174
Answer: 16
occ(1,12,11) occ(1,5,12) occ(1,12,4) occ(1,6,4) occ(1,13,4) occ(1,3,9) occ(1,4,2) occ(1,9,6) occ(1,6,5) occ(2,10,12) occ(3,7,2) coverage(175) occ(44,1,4) occ(53,1,9) occ(59,1,12) occ(65,1,7) occ(71,1,8) occ(75,1,6) occ(133,1,3) occ(145,1,1) occ(164,1,10) occ(170,1,11) occ(46,2,6) occ(51,2,7) occ(55,2,11) occ(63,2,9) occ(69,2,10) occ(77,2,4) occ(129,2,2) occ(135,2,1) occ(139,2,5) occ(147,2,3) occ(150,2,14) occ(162,2,8) occ(166,2,12) occ(172,2,13) occ(42,3,5) occ(57,3,13) occ(61,3,11) occ(67,3,8) occ(73,3,7) occ(131,3,4) occ(137,3,3) occ(143,3,2) occ(149,3,1) occ(152,3,12) occ(160,3,6) occ(168,3,10) occ(48,4,7) occ(49,4,8) occ(62,4,12) occ(79,4,5) occ(95,4,3) occ(104,4,11) occ(118,4,10) occ(122,4,6) occ(127,4,1) occ(141,4,4) occ(148,4,13) occ(156,4,9) occ(174,4,14) occ(40,5,6) occ(47,5,10) occ(50,5,5) occ(60,5,14) occ(97,5,1) occ(102,5,13) occ(120,5,8) occ(124,5,4) occ(125,5,3) occ(151,5,2) occ(154,5,11) occ(158,5,7) occ(54,6,8) occ(58,6,12) occ(64,6,13) occ(81,6,6) occ(93,6,2) occ(99,6,3) occ(100,6,11) occ(106,6,10) occ(116,6,9) occ(123,6,1) occ(146,6,14) occ(38,7,7) occ(45,7,11) occ(52,7,6) occ(56,7,10) occ(74,7,9) occ(83,7,4) occ(98,7,13) occ(101,7,5) occ(108,7,8) occ(126,7,3) occ(144,7,12) occ(153,7,1) occ(7,8,3) occ(27,8,11) occ(36,8,9) occ(43,8,13) occ(66,8,12) occ(72,8,7) occ(91,8,1) occ(105,8,6) occ(110,8,10) occ(114,8,8) occ(121,8,2) occ(128,8,5) occ(142,8,14) occ(157,8,4) occ(4,9,14) occ(5,9,1) occ(9,9,5) occ(25,9,13) occ(41,9,11) occ(70,9,9) occ(76,9,8) occ(85,9,3) occ(88,9,10) occ(96,9,12) occ(103,9,4) occ(130,9,7) occ(155,9,2) occ(11,10,7) occ(29,10,10) occ(30,10,4) occ(34,10,8) occ(68,10,11) occ(89,10,2) occ(94,10,14) occ(107,10,5) occ(112,10,9) occ(119,10,1) occ(140,10,13) occ(159,10,3) occ(6,11,13) occ(18,11,5) occ(23,11,14) occ(28,11,2) occ(32,11,6) occ(39,11,10) occ(78,11,7) occ(86,11,9) occ(87,11,4) occ(90,11,11) occ(132,11,8) occ(136,11,12) occ(161,11,1) occ(165,11,3) occ(13,12,8) occ(20,12,7) occ(31,12,9) occ(80,12,5) occ(92,12,13) occ(109,12,6) occ(117,12,2) occ(134,12,10) occ(138,12,14) occ(167,12,1) occ(171,12,3) occ(8,13,14) occ(12,13,10) occ(16,13,6) occ(17,13,9) occ(21,13,13) occ(22,13,5) occ(26,13,1) occ(33,13,7) occ(37,13,11) occ(84,13,8) occ(113,13,3) occ(163,13,2) occ(10,14,12) occ(14,14,8) occ(15,14,7) occ(19,14,11) occ(24,14,3) occ(35,14,9) occ(82,14,6) occ(111,14,5) occ(115,14,1) occ(169,14,2) occ(173,14,4)
Optimization: -175
Answer: 17
occ(1,12,11) occ(1,5,12) occ(1,12,4) occ(1,6,4) occ(1,13,4) occ(1,3,9) occ(1,4,2) occ(1,9,6) occ(1,6,5) occ(2,10,12) occ(3,7,2) coverage(176) occ(13,1,3) occ(91,1,8) occ(95,1,4) occ(101,1,5) occ(105,1,1) occ(112,1,14) occ(113,1,7) occ(116,1,12) occ(151,1,2) occ(161,1,11) occ(166,1,13) occ(170,1,9) occ(11,2,1) occ(15,2,5) occ(89,2,10) occ(93,2,6) occ(97,2,2) occ(103,2,3) occ(110,2,12) occ(118,2,14) occ(121,2,8) occ(153,2,4) occ(159,2,9) occ(163,2,13) occ(168,2,11) occ(172,2,7) occ(9,3,3) occ(99,3,4) occ(107,3,2) occ(111,3,6) occ(114,3,13) occ(115,3,8) occ(119,3,10) occ(120,3,12) occ(149,3,1) occ(157,3,7) occ(164,3,14) occ(165,3,11) occ(174,3,5) occ(7,4,1) occ(17,4,6) occ(31,4,3) occ(49,4,8) occ(87,4,11) occ(108,4,13) occ(109,4,4) occ(122,4,10) occ(123,4,7) occ(155,4,5) occ(162,4,12) occ(167,4,9) occ(5,5,3) occ(19,5,8) occ(25,5,7) occ(29,5,5) occ(33,5,1) occ(51,5,10) occ(76,5,4) occ(79,5,14) occ(85,5,13) occ(117,5,9) occ(147,5,2) occ(158,5,11) occ(171,5,6) occ(21,6,10) occ(35,6,3) occ(47,6,7) occ(74,6,2) occ(81,6,12) occ(106,6,14) occ(124,6,11) occ(125,6,6) occ(156,6,9) occ(160,6,13) occ(169,6,8) occ(23,7,8) occ(27,7,6) occ(53,7,11) occ(77,7,13) occ(78,7,5) occ(83,7,14) occ(84,7,10) occ(92,7,12) occ(126,7,9) occ(127,7,4) occ(134,7,3) occ(145,7,1) occ(173,7,7) occ(37,8,2) occ(45,8,6) occ(56,8,11) occ(72,8,1) occ(73,8,12) occ(80,8,7) occ(90,8,14) occ(94,8,10) occ(104,8,13) occ(132,8,5) occ(143,8,3) occ(154,8,8) occ(175,8,9) occ(24,9,2) occ(54,9,13) occ(55,9,12) occ(62,9,7) occ(66,9,5) occ(71,9,10) occ(75,9,14) occ(82,9,9) occ(86,9,11) occ(128,9,8) occ(129,9,3) occ(136,9,4) occ(141,9,1) occ(22,10,4) occ(39,10,1) occ(43,10,5) occ(58,10,10) occ(59,10,9) occ(69,10,8) occ(70,10,2) occ(88,10,13) occ(96,10,11) occ(102,10,14) occ(130,10,6) occ(139,10,3) occ(152,10,7) occ(4,11,10) occ(26,11,1) occ(34,11,7) occ(41,11,3) occ(52,11,14) occ(57,11,11) occ(60,11,8) occ(64,11,6) occ(68,11,4) occ(100,11,12) occ(131,11,2) occ(138,11,5) occ(146,11,9) occ(16,12,1) occ(20,12,3) occ(32,12,5) occ(36,12,9) occ(44,12,13) occ(50,12,12) occ(61,12,8) occ(67,12,7) occ(98,12,10) occ(137,12,2) occ(150,12,6) occ(6,13,11) occ(10,13,7) occ(14,13,3) occ(28,13,2) occ(40,13,12) occ(48,13,14) occ(65,13,5) occ(133,13,1) occ(140,13,6) occ(144,13,10) occ(148,13,8) occ(8,14,9) occ(12,14,5) occ(18,14,2) occ(30,14,4) occ(38,14,10) occ(42,14,14) occ(46,14,12) occ(63,14,7) occ(135,14,3) occ(142,14,8)
Optimization: -176
Answer: 18
occ(1,12,11) occ(1,5,12) occ(1,12,4) occ(1,6,4) occ(1,13,4) occ(1,3,9) occ(1,4,2) occ(1,9,6) occ(1,6,5) occ(2,10,12) occ(3,7,2) coverage(177) occ(13,1,3) occ(91,1,8) occ(95,1,4) occ(101,1,5) occ(105,1,1) occ(112,1,14) occ(113,1,7) occ(116,1,12) occ(151,1,2) occ(161,1,11) occ(166,1,13) occ(170,1,9) occ(176,1,6) occ(11,2,1) occ(15,2,5) occ(89,2,10) occ(93,2,6) occ(97,2,2) occ(103,2,3) occ(110,2,12) occ(118,2,14) occ(121,2,8) occ(153,2,4) occ(159,2,9) occ(163,2,13) occ(168,2,11) occ(172,2,7) occ(9,3,3) occ(99,3,4) occ(107,3,2) occ(111,3,6) occ(114,3,13) occ(115,3,8) occ(119,3,10) occ(120,3,12) occ(149,3,1) occ(157,3,7) occ(164,3,14) occ(165,3,11) occ(174,3,5) occ(7,4,1) occ(17,4,6) occ(31,4,3) occ(49,4,8) occ(87,4,11) occ(108,4,13) occ(109,4,4) occ(122,4,10) occ(123,4,7) occ(155,4,5) occ(162,4,12) occ(167,4,9) occ(5,5,3) occ(19,5,8) occ(25,5,7) occ(29,5,5) occ(33,5,1) occ(51,5,10) occ(76,5,4) occ(79,5,14) occ(85,5,13) occ(117,5,9) occ(147,5,2) occ(158,5,11) occ(171,5,6) occ(21,6,10) occ(35,6,3) occ(47,6,7) occ(74,6,2) occ(81,6,12) occ(106,6,14) occ(124,6,11) occ(125,6,6) occ(156,6,9) occ(160,6,13) occ(169,6,8) occ(23,7,8) occ(27,7,6) occ(53,7,11) occ(77,7,13) occ(78,7,5) occ(83,7,14) occ(84,7,10) occ(92,7,12) occ(126,7,9) occ(127,7,4) occ(134,7,3) occ(145,7,1) occ(173,7,7) occ(37,8,2) occ(45,8,6) occ(56,8,11) occ(72,8,1) occ(73,8,12) occ(80,8,7) occ(90,8,14) occ(94,8,10) occ(104,8,13) occ(132,8,5) occ(143,8,3) occ(154,8,8) occ(175,8,9) occ(24,9,2) occ(54,9,13) occ(55,9,12) occ(62,9,7) occ(66,9,5) occ(71,9,10) occ(75,9,14) occ(82,9,9) occ(86,9,11) occ(128,9,8) occ(129,9,3) occ(136,9,4) occ(141,9,1) occ(22,10,4) occ(39,10,1) occ(43,10,5) occ(58,10,10) occ(59,10,9) occ(69,10,8) occ(70,10,2) occ(88,10,13) occ(96,10,11) occ(102,10,14) occ(130,10,6) occ(139,10,3) occ(152,10,7) occ(4,11,10) occ(26,11,1) occ(34,11,7) occ(41,11,3) occ(52,11,14) occ(57,11,11) occ(60,11,8) occ(64,11,6) occ(68,11,4) occ(100,11,12) occ(131,11,2) occ(138,11,5) occ(146,11,9) occ(16,12,1) occ(20,12,3) occ(32,12,5) occ(36,12,9) occ(44,12,13) occ(50,12,12) occ(61,12,8) occ(67,12,7) occ(98,12,10) occ(137,12,2) occ(150,12,6) occ(6,13,11) occ(10,13,7) occ(14,13,3) occ(28,13,2) occ(40,13,12) occ(48,13,14) occ(65,13,5) occ(133,13,1) occ(140,13,6) occ(144,13,10) occ(148,13,8) occ(8,14,9) occ(12,14,5) occ(18,14,2) occ(30,14,4) occ(38,14,10) occ(42,14,14) occ(46,14,12) occ(63,14,7) occ(135,14,3) occ(142,14,8)
Optimization: -177
Answer: 19
occ(1,12,11) occ(1,5,12) occ(1,12,4) occ(1,6,4) occ(1,13,4) occ(1,3,9) occ(1,4,2) occ(1,9,6) occ(1,6,5) occ(2,10,12) occ(3,7,2) coverage(178) occ(58,1,5) occ(62,1,9) occ(74,1,11) occ(82,1,7) occ(108,1,4) occ(123,1,14) occ(127,1,12) occ(131,1,10) occ(135,1,6) occ(9,2,4) occ(50,2,2) occ(56,2,3) occ(60,2,7) occ(64,2,11) occ(72,2,13) occ(80,2,9) occ(90,2,6) occ(94,2,10) occ(121,2,12) occ(133,2,8) occ(139,2,5) occ(7,3,2) occ(54,3,1) occ(68,3,12) occ(76,3,10) occ(84,3,6) occ(88,3,4) occ(92,3,8) occ(106,3,5) occ(110,3,3) occ(119,3,14) occ(125,3,13) occ(129,3,11) occ(137,3,7) occ(11,4,5) occ(48,4,1) occ(52,4,3) occ(55,4,7) occ(66,4,10) occ(70,4,14) occ(73,4,6) occ(78,4,8) occ(96,4,11) occ(141,4,4) occ(157,4,12) occ(175,4,13) occ(5,5,1) occ(13,5,7) occ(46,5,3) occ(71,5,4) occ(75,5,8) occ(86,5,5) occ(104,5,6) occ(112,5,2) occ(117,5,13) occ(149,5,9) occ(155,5,14) occ(173,5,11) occ(15,6,9) occ(44,6,1) occ(53,6,6) occ(57,6,8) occ(98,6,10) occ(118,6,2) occ(143,6,3) occ(147,6,7) occ(153,6,12) occ(159,6,11) occ(171,6,13) occ(177,6,14) occ(17,7,11) occ(45,7,13) occ(51,7,8) occ(59,7,6) occ(69,7,3) occ(77,7,9) occ(102,7,7) occ(114,7,1) occ(115,7,14) occ(120,7,4) occ(145,7,5) occ(151,7,10) occ(167,7,12) occ(4,8,13) occ(42,8,2) occ(47,8,11) occ(67,8,5) occ(81,8,10) occ(100,8,9) occ(116,8,3) occ(122,8,6) occ(144,8,1) occ(161,8,12) occ(162,8,4) occ(169,8,14) occ(170,8,8) occ(176,8,7) occ(19,9,12) occ(43,9,14) occ(49,9,9) occ(61,9,5) occ(79,9,8) occ(113,9,13) occ(124,9,4) occ(128,9,2) occ(146,9,3) occ(158,9,1) occ(165,9,11) occ(166,9,7) occ(172,9,10) occ(6,10,14) occ(20,10,7) occ(40,10,1) occ(65,10,4) occ(83,10,11) occ(93,10,6) occ(105,10,10) occ(142,10,2) occ(160,10,3) occ(163,10,13) occ(164,10,5) occ(168,10,9) occ(174,10,8) occ(18,11,5) occ(21,11,11) occ(24,11,10) occ(41,11,13) occ(63,11,6) occ(85,11,9) occ(97,11,7) occ(103,11,8) occ(107,11,12) occ(111,11,14) occ(126,11,3) occ(130,11,1) occ(148,11,4) occ(156,11,2) occ(8,12,13) occ(22,12,8) occ(25,12,14) occ(30,12,6) occ(33,12,10) occ(37,12,12) occ(38,12,2) occ(91,12,7) occ(95,12,5) occ(99,12,9) occ(136,12,3) occ(140,12,1) occ(12,13,10) occ(16,13,6) occ(23,13,12) occ(26,13,9) occ(29,13,11) occ(34,13,3) occ(39,13,14) occ(87,13,8) occ(101,13,7) occ(109,13,13) occ(132,13,2) occ(150,13,5) occ(154,13,1) occ(10,14,12) occ(14,14,8) occ(27,14,13) occ(28,14,7) occ(31,14,9) occ(32,14,5) occ(35,14,11) occ(36,14,1) occ(89,14,6) occ(134,14,4) occ(138,14,2) occ(152,14,3)
Optimization: -178
*** Info : (clingo): INTERRUPTED by signal!
SATISFIABLE

TIME LIMIT   : 1
Models       : 19+
  Optimum    : unknown
Optimization : -178
Calls        : 1
Time         : 300.000s (Solving: 285.71s 1st Model: 0.01s Unsat: 0.00s)
CPU Time     : 300.001s
